simple.lp
Minimize
 obj: x1 + 2 x2 + 3 x3 + x4
Subject To
 c1: - x1 + x2 + x3 + 10 x4 <= 20
 c2: x1 - 3 x2 + x3 <= 30
 c3: x2 + x4 = 1
 c4: x1 = 1
Binary
 x4
 x3
 x2
 x1
End