simple.sol
solution status: optimal solution found
objective value:                                   20
x0_1                                                1 	(obj:0)
x1_4                                                1 	(obj:0)
x2_3                                                1 	(obj:0)
x3_2                                                1 	(obj:0)
x4_5                                                1 	(obj:0)
quadobjvar                                         20 	(obj:1)
